c t pmc
c file mc2022_track3_133.cnf
p cnf 336 2332
c p show 3 11 18 37 48 57 63 73 77 80 81 85 87 108 116 160 161 163 186 194 197 199 203 204 211 212 227 237 239 240 243 252 259 266 270 274 289 300 302 308 328 332 0
1 0
-241 0
-233 0
-273 0
-225 0
-305 0
161 162 164 166 163 165 167 168 0
173 174 176 171 170 172 169 175 0
178 183 184 177 180 181 179 182 0
185 186 188 190 189 192 187 191 0
198 199 200 196 194 195 197 193 0
202 206 208 207 205 203 201 204 0
213 214 215 212 216 210 209 211 0
217 220 221 218 219 224 223 222 0
249 252 253 254 256 255 251 250 0
257 262 264 261 260 263 258 259 0
265 266 272 270 269 268 267 271 0
282 284 287 285 286 281 283 288 0
291 293 296 295 294 290 289 292 0
300 302 304 301 303 298 297 299 0
313 316 318 319 314 317 320 315 0
153 154 158 157 159 156 160 155 0
145 146 152 150 149 148 151 147 0
137 144 141 143 139 138 142 140 0
133 132 134 131 129 130 136 135 0
121 123 126 128 122 127 124 125 0
113 114 118 117 119 116 115 120 0
105 107 112 108 106 109 111 110 0
99 101 98 97 103 102 104 100 0
90 94 96 92 93 95 89 91 0
82 86 88 81 84 87 83 85 0
73 74 80 78 77 79 75 76 0
66 70 72 65 69 68 71 67 0
57 62 63 58 61 60 59 64 0
332 334 336 335 333 330 329 331 0
322 326 328 321 325 327 324 323 0
227 228 230 232 229 231 226 0
235 239 234 240 236 237 238 0
243 244 242 246 247 248 245 0
309 310 312 308 306 311 307 0
276 278 280 279 274 275 277 0
50 52 54 53 55 49 51 0
41 45 46 44 42 43 0
34 35 37 36 33 0
25 27 28 26 0
19 17 18 0
-2 -274 0
-3 -275 0
-4 -276 0
-5 -277 0
-6 -278 0
-7 -279 0
-8 -280 0
-185 -113 0
-186 -114 0
-187 -115 0
-188 -116 0
-189 -117 0
-190 -118 0
-191 -119 0
-192 -120 0
-333 -93 0
-335 -95 0
-201 -57 0
-202 -58 0
-59 -203 0
-60 -204 0
-61 -205 0
-62 -206 0
-63 -207 0
-64 -208 0
-193 -321 0
-194 -322 0
-195 -323 0
-196 -324 0
-197 -325 0
-198 -326 0
-115 -291 0
-199 -327 0
-116 -292 0
-200 -328 0
-117 -293 0
-118 -294 0
-119 -295 0
-296 -120 0
-313 -25 0
-314 -26 0
-315 -27 0
-316 -28 0
-317 -29 0
-318 -30 0
-319 -31 0
-320 -32 0
-49 -97 0
-50 -98 0
-51 -99 0
-52 -100 0
-185 -153 0
-186 -154 0
-187 -155 0
-188 -156 0
-189 -157 0
-190 -158 0
-191 -159 0
-192 -160 0
-249 -17 0
-250 -18 0
-251 -19 0
-252 -20 0
-253 -21 0
-254 -22 0
-255 -23 0
-256 -24 0
-113 -289 0
-114 -290 0
-23 -295 0
-307 -11 0
-310 -14 0
-311 -15 0
-312 -16 0
-265 -169 0
-266 -170 0
-171 -267 0
-268 -172 0
-269 -173 0
-270 -174 0
-271 -175 0
-272 -176 0
-213 -157 0
-214 -158 0
-202 -162 0
-216 -160 0
-145 -161 0
-204 -164 0
-147 -163 0
-148 -164 0
-149 -165 0
-150 -166 0
-151 -167 0
-152 -168 0
-17 -289 0
-18 -290 0
-19 -291 0
-20 -292 0
-21 -293 0
-22 -294 0
-219 -139 0
-24 -296 0
-306 -10 0
-221 -141 0
-308 -12 0
-309 -13 0
-223 -143 0
-224 -144 0
-321 -113 0
-322 -114 0
-323 -115 0
-324 -116 0
-325 -117 0
-326 -118 0
-327 -119 0
-328 -120 0
-89 -329 0
-90 -330 0
-91 -331 0
-332 -92 0
-201 -161 0
-334 -94 0
-203 -163 0
-336 -96 0
-205 -165 0
-206 -166 0
-207 -167 0
-208 -168 0
-169 -153 0
-170 -154 0
-171 -155 0
-172 -156 0
-173 -157 0
-174 -158 0
-175 -159 0
-176 -160 0
-137 -217 0
-218 -138 0
-160 -272 0
-220 -140 0
-146 -202 0
-222 -142 0
-148 -204 0
-149 -205 0
-150 -206 0
-151 -207 0
-152 -208 0
-329 -17 0
-330 -18 0
-19 -331 0
-332 -20 0
-333 -21 0
-334 -22 0
-335 -23 0
-336 -24 0
-198 -22 0
-199 -23 0
-73 -81 0
-74 -82 0
-76 -84 0
-77 -85 0
-78 -86 0
-79 -87 0
-80 -88 0
-265 -153 0
-266 -154 0
-155 -267 0
-156 -268 0
-157 -269 0
-158 -270 0
-159 -271 0
-44 -164 0
-45 -165 0
-145 -201 0
-46 -166 0
-47 -167 0
-147 -203 0
-48 -168 0
-274 -162 0
-275 -163 0
-276 -164 0
-277 -165 0
-278 -166 0
-279 -167 0
-280 -168 0
-169 -289 0
-170 -290 0
-171 -291 0
-172 -292 0
-173 -293 0
-174 -294 0
-169 -65 0
-170 -66 0
-171 -67 0
-172 -68 0
-173 -69 0
-174 -70 0
-175 -71 0
-176 -72 0
-274 -202 0
-275 -203 0
-276 -204 0
-277 -205 0
-278 -206 0
-279 -207 0
-280 -208 0
-41 -161 0
-42 -162 0
-43 -163 0
-335 -71 0
-336 -72 0
-258 -290 0
-259 -291 0
-261 -293 0
-262 -294 0
-263 -295 0
-264 -296 0
-121 -209 0
-122 -210 0
-123 -211 0
-124 -212 0
-125 -213 0
-126 -214 0
-127 -215 0
-128 -216 0
-53 -101 0
-54 -102 0
-42 -266 0
-55 -103 0
-56 -104 0
-44 -268 0
-145 -89 0
-146 -90 0
-147 -91 0
-148 -92 0
-149 -93 0
-150 -94 0
-151 -95 0
-152 -96 0
-65 -329 0
-330 -66 0
-331 -67 0
-332 -68 0
-333 -69 0
-334 -70 0
-92 -68 0
-257 -289 0
-94 -70 0
-260 -292 0
-96 -72 0
-257 -97 0
-258 -98 0
-259 -99 0
-260 -100 0
-261 -101 0
-262 -102 0
-263 -103 0
-264 -104 0
-193 -17 0
-194 -18 0
-195 -19 0
-196 -20 0
-197 -21 0
-41 -265 0
-200 -24 0
-43 -267 0
-75 -83 0
-45 -269 0
-46 -270 0
-47 -271 0
-48 -272 0
-242 -98 0
-243 -99 0
-244 -100 0
-245 -101 0
-246 -102 0
-247 -103 0
-248 -104 0
-65 -89 0
-90 -66 0
-91 -67 0
-301 -21 0
-93 -69 0
-304 -24 0
-95 -71 0
-155 -299 0
-156 -300 0
-157 -301 0
-158 -302 0
-159 -303 0
-160 -304 0
-169 -257 0
-170 -258 0
-171 -259 0
-172 -260 0
-173 -261 0
-147 -171 0
-148 -172 0
-175 -263 0
-150 -174 0
-151 -175 0
-306 -162 0
-73 -201 0
-74 -202 0
-75 -203 0
-76 -204 0
-77 -205 0
-78 -206 0
-79 -207 0
-80 -208 0
-297 -17 0
-298 -18 0
-19 -299 0
-300 -20 0
-146 -82 0
-302 -22 0
-303 -23 0
-148 -84 0
-297 -153 0
-298 -154 0
-150 -86 0
-151 -87 0
-152 -88 0
-49 -153 0
-50 -154 0
-155 -51 0
-156 -52 0
-157 -53 0
-158 -54 0
-159 -55 0
-160 -56 0
-281 -33 0
-282 -34 0
-283 -35 0
-174 -262 0
-285 -37 0
-176 -264 0
-287 -39 0
-307 -163 0
-308 -164 0
-309 -165 0
-310 -166 0
-311 -167 0
-312 -168 0
-306 -202 0
-307 -203 0
-308 -204 0
-309 -205 0
-310 -206 0
-311 -207 0
-312 -208 0
-145 -81 0
-293 -101 0
-147 -83 0
-295 -103 0
-149 -85 0
-161 -17 0
-162 -18 0
-19 -163 0
-20 -164 0
-21 -165 0
-22 -166 0
-23 -167 0
-24 -168 0
-73 -113 0
-74 -114 0
-75 -115 0
-76 -116 0
-77 -117 0
-78 -118 0
-251 -115 0
-79 -119 0
-252 -116 0
-80 -120 0
-253 -117 0
-254 -118 0
-255 -119 0
-256 -120 0
-33 -97 0
-34 -98 0
-35 -99 0
-36 -100 0
-37 -101 0
-38 -102 0
-39 -103 0
-40 -104 0
-289 -97 0
-290 -98 0
-291 -99 0
-292 -100 0
-294 -102 0
-296 -104 0
-331 -163 0
-332 -164 0
-333 -165 0
-334 -166 0
-335 -167 0
-336 -168 0
-25 -169 0
-26 -170 0
-27 -171 0
-28 -172 0
-29 -173 0
-30 -174 0
-31 -175 0
-32 -176 0
-145 -169 0
-146 -170 0
-149 -173 0
-152 -176 0
-145 -289 0
-146 -290 0
-147 -291 0
-148 -292 0
-149 -293 0
-150 -294 0
-151 -295 0
-152 -296 0
-145 -57 0
-146 -58 0
-147 -59 0
-148 -60 0
-149 -61 0
-150 -62 0
-151 -63 0
-152 -64 0
-329 -161 0
-330 -162 0
-316 -100 0
-317 -101 0
-318 -102 0
-319 -103 0
-320 -104 0
-185 -25 0
-186 -26 0
-187 -27 0
-188 -28 0
-189 -29 0
-190 -30 0
-191 -31 0
-192 -32 0
-246 -22 0
-122 -18 0
-89 -289 0
-124 -20 0
-92 -292 0
-93 -293 0
-94 -294 0
-95 -295 0
-96 -296 0
-81 -65 0
-82 -66 0
-83 -67 0
-84 -68 0
-85 -69 0
-86 -70 0
-87 -71 0
-123 -59 0
-88 -72 0
-313 -97 0
-61 -125 0
-314 -98 0
-315 -99 0
-63 -127 0
-64 -128 0
-41 -113 0
-42 -114 0
-43 -115 0
-44 -116 0
-45 -117 0
-46 -118 0
-47 -119 0
-48 -120 0
-209 -153 0
-210 -154 0
-211 -155 0
-212 -156 0
-121 -17 0
-215 -159 0
-123 -19 0
-146 -162 0
-125 -21 0
-126 -22 0
-127 -23 0
-128 -24 0
-313 -153 0
-314 -154 0
-315 -155 0
-316 -156 0
-317 -157 0
-318 -158 0
-319 -159 0
-320 -160 0
-121 -57 0
-122 -58 0
-134 -222 0
-60 -124 0
-193 -97 0
-62 -126 0
-196 -100 0
-197 -101 0
-198 -102 0
-199 -103 0
-200 -104 0
-81 -265 0
-82 -266 0
-83 -267 0
-84 -268 0
-85 -269 0
-86 -270 0
-87 -271 0
-284 -36 0
-88 -272 0
-234 -10 0
-286 -38 0
-235 -11 0
-236 -12 0
-288 -40 0
-89 -153 0
-90 -154 0
-155 -91 0
-156 -92 0
-157 -93 0
-158 -94 0
-159 -95 0
-160 -96 0
-129 -217 0
-130 -218 0
-131 -219 0
-132 -220 0
-133 -221 0
-223 -135 0
-224 -136 0
-194 -98 0
-195 -99 0
-335 -119 0
-336 -120 0
-25 -97 0
-26 -98 0
-27 -99 0
-28 -100 0
-29 -101 0
-30 -102 0
-31 -103 0
-32 -104 0
-242 -18 0
-243 -19 0
-244 -20 0
-245 -21 0
-247 -23 0
-248 -24 0
-90 -290 0
-91 -291 0
-237 -13 0
-238 -14 0
-239 -15 0
-240 -16 0
-73 -297 0
-74 -298 0
-75 -299 0
-76 -300 0
-77 -301 0
-78 -302 0
-79 -303 0
-80 -304 0
-329 -113 0
-330 -114 0
-331 -115 0
-332 -116 0
-333 -117 0
-334 -118 0
-193 -265 0
-194 -266 0
-195 -267 0
-196 -268 0
-197 -269 0
-198 -270 0
-199 -271 0
-200 -272 0
-321 -153 0
-322 -154 0
-323 -155 0
-324 -156 0
-325 -157 0
-326 -158 0
-327 -159 0
-147 -19 0
-149 -21 0
-151 -23 0
-152 -24 0
-146 -274 0
-147 -275 0
-148 -276 0
-149 -277 0
-150 -278 0
-151 -279 0
-152 -280 0
-306 -2 0
-307 -3 0
-4 -308 0
-5 -309 0
-6 -310 0
-282 -18 0
-7 -311 0
-283 -19 0
-8 -312 0
-284 -20 0
-285 -21 0
-286 -22 0
-287 -23 0
-288 -24 0
-274 -210 0
-275 -211 0
-276 -212 0
-277 -213 0
-278 -214 0
-279 -215 0
-280 -216 0
-281 -153 0
-282 -154 0
-283 -155 0
-284 -156 0
-328 -160 0
-201 -329 0
-202 -330 0
-331 -203 0
-332 -204 0
-333 -205 0
-334 -206 0
-335 -207 0
-336 -208 0
-25 -153 0
-26 -154 0
-27 -155 0
-28 -156 0
-29 -157 0
-30 -158 0
-31 -159 0
-32 -160 0
-281 -17 0
-313 -281 0
-315 -283 0
-317 -285 0
-318 -286 0
-319 -287 0
-320 -288 0
-178 -226 0
-179 -227 0
-180 -228 0
-181 -229 0
-182 -230 0
-183 -231 0
-184 -232 0
-297 -89 0
-298 -90 0
-299 -91 0
-21 -101 0
-300 -92 0
-22 -102 0
-301 -93 0
-23 -103 0
-24 -104 0
-242 -10 0
-243 -11 0
-244 -12 0
-245 -13 0
-246 -14 0
-247 -15 0
-248 -16 0
-242 -306 0
-243 -307 0
-244 -308 0
-245 -309 0
-246 -310 0
-247 -311 0
-248 -312 0
-314 -282 0
-316 -284 0
-34 -114 0
-35 -115 0
-36 -116 0
-37 -117 0
-38 -118 0
-39 -119 0
-40 -120 0
-306 -98 0
-307 -99 0
-308 -100 0
-309 -101 0
-310 -102 0
-311 -103 0
-312 -104 0
-145 -17 0
-146 -18 0
-148 -20 0
-150 -22 0
-302 -94 0
-303 -95 0
-304 -96 0
-234 -18 0
-235 -19 0
-236 -20 0
-237 -21 0
-238 -22 0
-239 -23 0
-240 -24 0
-306 -138 0
-307 -139 0
-308 -140 0
-309 -141 0
-310 -142 0
-311 -143 0
-312 -144 0
-33 -113 0
-228 -140 0
-141 -229 0
-230 -142 0
-143 -231 0
-232 -144 0
-130 -274 0
-131 -275 0
-132 -276 0
-133 -277 0
-134 -278 0
-135 -279 0
-136 -280 0
-313 -113 0
-314 -114 0
-315 -115 0
-334 -278 0
-336 -280 0
-275 -67 0
-276 -68 0
-277 -69 0
-278 -70 0
-279 -71 0
-280 -72 0
-265 -121 0
-266 -122 0
-123 -267 0
-268 -124 0
-269 -125 0
-270 -126 0
-271 -127 0
-272 -128 0
-23 -231 0
-138 -226 0
-232 -24 0
-139 -227 0
-249 -185 0
-250 -186 0
-251 -187 0
-252 -188 0
-253 -189 0
-254 -190 0
-255 -191 0
-256 -192 0
-329 -97 0
-330 -98 0
-331 -99 0
-332 -100 0
-333 -101 0
-334 -102 0
-335 -103 0
-336 -104 0
-316 -116 0
-317 -117 0
-318 -118 0
-319 -119 0
-320 -120 0
-105 -249 0
-106 -250 0
-107 -251 0
-108 -252 0
-109 -253 0
-110 -254 0
-111 -255 0
-112 -256 0
-18 -226 0
-19 -227 0
-228 -20 0
-21 -229 0
-230 -22 0
-119 -95 0
-33 -321 0
-35 -323 0
-36 -324 0
-37 -325 0
-38 -326 0
-39 -327 0
-40 -328 0
-57 -265 0
-58 -266 0
-59 -267 0
-60 -268 0
-61 -269 0
-62 -270 0
-63 -271 0
-64 -272 0
-285 -157 0
-201 -49 0
-286 -158 0
-202 -50 0
-287 -159 0
-288 -160 0
-193 -161 0
-194 -162 0
-195 -163 0
-196 -164 0
-197 -165 0
-198 -166 0
-199 -167 0
-200 -168 0
-113 -89 0
-114 -90 0
-115 -91 0
-116 -92 0
-117 -93 0
-118 -94 0
-120 -96 0
-34 -322 0
-37 -301 0
-38 -302 0
-39 -303 0
-40 -304 0
-201 -89 0
-202 -90 0
-91 -203 0
-92 -204 0
-93 -205 0
-94 -206 0
-95 -207 0
-96 -208 0
-330 -274 0
-331 -275 0
-332 -276 0
-333 -277 0
-335 -279 0
-274 -66 0
-51 -203 0
-52 -204 0
-53 -205 0
-54 -206 0
-55 -207 0
-208 -56 0
-41 -297 0
-42 -298 0
-43 -299 0
-44 -300 0
-45 -301 0
-46 -302 0
-47 -303 0
-48 -304 0
-33 -297 0
-34 -298 0
-35 -299 0
-36 -300 0
-309 -269 0
-310 -270 0
-311 -271 0
-312 -272 0
-178 -234 0
-179 -235 0
-180 -236 0
-181 -237 0
-182 -238 0
-183 -239 0
-184 -240 0
-329 -289 0
-330 -290 0
-331 -291 0
-332 -292 0
-320 -256 0
-106 -18 0
-108 -20 0
-109 -21 0
-110 -22 0
-111 -23 0
-112 -24 0
-73 -265 0
-74 -266 0
-75 -267 0
-76 -268 0
-77 -269 0
-78 -270 0
-79 -271 0
-80 -272 0
-306 -266 0
-72 -120 0
-307 -267 0
-281 -97 0
-308 -268 0
-282 -98 0
-283 -99 0
-284 -100 0
-285 -101 0
-286 -102 0
-287 -103 0
-288 -104 0
-306 -290 0
-307 -291 0
-308 -292 0
-309 -293 0
-310 -294 0
-311 -295 0
-312 -296 0
-17 -153 0
-18 -154 0
-333 -293 0
-334 -294 0
-335 -295 0
-336 -296 0
-234 -218 0
-235 -219 0
-236 -220 0
-237 -221 0
-238 -222 0
-223 -239 0
-224 -240 0
-65 -113 0
-66 -114 0
-67 -115 0
-68 -116 0
-69 -117 0
-70 -118 0
-71 -119 0
-329 -209 0
-331 -211 0
-333 -213 0
-334 -214 0
-335 -215 0
-336 -216 0
-313 -169 0
-314 -170 0
-315 -171 0
-316 -172 0
-317 -173 0
-318 -174 0
-319 -175 0
-320 -176 0
-249 -33 0
-250 -34 0
-175 -295 0
-251 -35 0
-296 -176 0
-252 -36 0
-217 -265 0
-218 -266 0
-219 -267 0
-220 -268 0
-221 -269 0
-222 -270 0
-223 -271 0
-224 -272 0
-73 -161 0
-74 -162 0
-75 -163 0
-76 -164 0
-77 -165 0
-78 -166 0
-79 -167 0
-80 -168 0
-330 -210 0
-332 -212 0
-8 -232 0
-65 -289 0
-66 -290 0
-67 -291 0
-68 -292 0
-69 -293 0
-70 -294 0
-71 -295 0
-72 -296 0
-313 -249 0
-314 -250 0
-315 -251 0
-316 -252 0
-317 -253 0
-318 -254 0
-319 -255 0
-105 -17 0
-107 -19 0
-253 -37 0
-254 -38 0
-255 -39 0
-256 -40 0
-121 -89 0
-122 -90 0
-123 -91 0
-124 -92 0
-125 -93 0
-126 -94 0
-127 -95 0
-128 -96 0
-2 -226 0
-3 -227 0
-4 -228 0
-5 -229 0
-6 -230 0
-7 -231 0
-73 -169 0
-74 -170 0
-75 -171 0
-76 -172 0
-77 -173 0
-78 -174 0
-79 -175 0
-80 -176 0
-178 -306 0
-179 -307 0
-180 -308 0
-181 -309 0
-182 -310 0
-183 -311 0
-184 -312 0
-172 -36 0
-174 -38 0
-176 -40 0
-297 -161 0
-298 -162 0
-299 -163 0
-300 -164 0
-301 -165 0
-302 -166 0
-303 -167 0
-304 -168 0
-306 -218 0
-307 -219 0
-308 -220 0
-309 -221 0
-310 -222 0
-187 -171 0
-223 -311 0
-188 -172 0
-224 -312 0
-189 -173 0
-190 -174 0
-191 -175 0
-192 -176 0
-185 -97 0
-186 -98 0
-187 -99 0
-188 -100 0
-189 -101 0
-190 -102 0
-191 -103 0
-192 -104 0
-17 -97 0
-18 -98 0
-19 -99 0
-20 -100 0
-41 -289 0
-42 -290 0
-43 -291 0
-44 -292 0
-45 -293 0
-46 -294 0
-47 -295 0
-48 -296 0
-161 -89 0
-162 -90 0
-91 -163 0
-92 -164 0
-93 -165 0
-94 -166 0
-95 -167 0
-96 -168 0
-185 -169 0
-186 -170 0
-325 -205 0
-327 -207 0
-57 -153 0
-58 -154 0
-59 -155 0
-60 -156 0
-61 -157 0
-62 -158 0
-63 -159 0
-64 -160 0
-193 -33 0
-194 -34 0
-195 -35 0
-196 -36 0
-197 -37 0
-198 -38 0
-19 -155 0
-199 -39 0
-156 -20 0
-200 -40 0
-21 -157 0
-158 -22 0
-23 -159 0
-160 -24 0
-73 -89 0
-74 -90 0
-75 -91 0
-76 -92 0
-77 -93 0
-78 -94 0
-79 -95 0
-80 -96 0
-321 -201 0
-322 -202 0
-323 -203 0
-324 -204 0
-326 -206 0
-328 -208 0
-276 -12 0
-277 -13 0
-278 -14 0
-279 -15 0
-280 -16 0
-41 -169 0
-42 -170 0
-43 -171 0
-44 -172 0
-45 -173 0
-46 -174 0
-47 -175 0
-48 -176 0
-169 -33 0
-170 -34 0
-171 -35 0
-173 -37 0
-175 -39 0
-321 -161 0
-322 -162 0
-323 -163 0
-324 -164 0
-325 -165 0
-326 -166 0
-327 -167 0
-328 -168 0
-321 -17 0
-322 -18 0
-19 -323 0
-324 -20 0
-325 -21 0
-326 -22 0
-327 -23 0
-328 -24 0
-274 -10 0
-275 -11 0
-308 -68 0
-309 -69 0
-310 -70 0
-311 -71 0
-312 -72 0
-121 -297 0
-122 -298 0
-123 -299 0
-124 -300 0
-125 -301 0
-126 -302 0
-127 -303 0
-128 -304 0
-169 -193 0
-170 -194 0
-174 -94 0
-176 -96 0
-74 -322 0
-75 -323 0
-76 -324 0
-325 -77 0
-326 -78 0
-327 -79 0
-328 -80 0
-2 -242 0
-3 -243 0
-4 -244 0
-5 -245 0
-6 -246 0
-7 -247 0
-8 -248 0
-45 -325 0
-306 -66 0
-46 -326 0
-307 -67 0
-47 -327 0
-48 -328 0
-321 -265 0
-322 -266 0
-323 -267 0
-324 -268 0
-325 -269 0
-326 -270 0
-327 -271 0
-328 -272 0
-306 -130 0
-307 -131 0
-308 -132 0
-309 -133 0
-310 -134 0
-311 -135 0
-171 -195 0
-172 -196 0
-173 -197 0
-174 -198 0
-175 -199 0
-176 -200 0
-97 -177 0
-98 -178 0
-179 -99 0
-180 -100 0
-181 -101 0
-182 -102 0
-183 -103 0
-184 -104 0
-41 -321 0
-42 -322 0
-43 -323 0
-44 -324 0
-312 -176 0
-35 -163 0
-38 -166 0
-39 -167 0
-40 -168 0
-313 -17 0
-314 -18 0
-315 -19 0
-316 -20 0
-317 -21 0
-318 -22 0
-319 -23 0
-320 -24 0
-125 -69 0
-126 -70 0
-82 -162 0
-128 -72 0
-201 -289 0
-84 -164 0
-203 -291 0
-204 -292 0
-205 -293 0
-206 -294 0
-207 -295 0
-296 -208 0
-306 -170 0
-307 -171 0
-308 -172 0
-309 -173 0
-310 -174 0
-311 -175 0
-171 -331 0
-33 -161 0
-34 -162 0
-333 -173 0
-36 -164 0
-37 -165 0
-335 -175 0
-336 -176 0
-234 -306 0
-235 -307 0
-236 -308 0
-237 -309 0
-238 -310 0
-239 -311 0
-240 -312 0
-169 -89 0
-170 -90 0
-171 -91 0
-172 -92 0
-173 -93 0
-81 -161 0
-175 -95 0
-83 -163 0
-73 -321 0
-85 -165 0
-86 -166 0
-87 -167 0
-88 -168 0
-169 -49 0
-170 -50 0
-171 -51 0
-172 -52 0
-173 -53 0
-174 -54 0
-175 -55 0
-176 -56 0
-169 -329 0
-170 -330 0
-43 -99 0
-332 -172 0
-45 -101 0
-334 -174 0
-47 -103 0
-48 -104 0
-289 -153 0
-290 -154 0
-291 -155 0
-292 -156 0
-293 -157 0
-294 -158 0
-295 -159 0
-296 -160 0
-306 -18 0
-307 -19 0
-308 -20 0
-329 -153 0
-330 -154 0
-156 -332 0
-157 -333 0
-159 -335 0
-160 -336 0
-193 -257 0
-194 -258 0
-195 -259 0
-196 -260 0
-197 -261 0
-198 -262 0
-199 -263 0
-200 -264 0
-41 -97 0
-42 -98 0
-151 -71 0
-152 -72 0
-44 -100 0
-201 -297 0
-202 -298 0
-46 -102 0
-299 -203 0
-300 -204 0
-301 -205 0
-302 -206 0
-303 -207 0
-304 -208 0
-249 -169 0
-250 -170 0
-251 -171 0
-252 -172 0
-253 -173 0
-254 -174 0
-255 -175 0
-256 -176 0
-309 -21 0
-310 -22 0
-311 -23 0
-312 -24 0
-265 -209 0
-266 -210 0
-211 -267 0
-268 -212 0
-269 -213 0
-270 -214 0
-271 -215 0
-272 -216 0
-145 -65 0
-146 -66 0
-147 -67 0
-148 -68 0
-149 -69 0
-150 -70 0
-307 -91 0
-308 -92 0
-310 -94 0
-311 -95 0
-81 -321 0
-82 -322 0
-83 -323 0
-84 -324 0
-85 -325 0
-86 -326 0
-87 -327 0
-88 -328 0
-257 -113 0
-258 -114 0
-259 -115 0
-260 -116 0
-312 -136 0
-105 -281 0
-262 -118 0
-106 -282 0
-107 -283 0
-264 -120 0
-108 -284 0
-109 -285 0
-110 -286 0
-111 -287 0
-112 -288 0
-25 -113 0
-26 -114 0
-27 -115 0
-28 -116 0
-29 -117 0
-30 -118 0
-31 -119 0
-32 -120 0
-306 -90 0
-191 -287 0
-309 -93 0
-137 -17 0
-312 -96 0
-139 -19 0
-140 -20 0
-141 -21 0
-142 -22 0
-143 -23 0
-144 -24 0
-145 -265 0
-146 -266 0
-147 -267 0
-148 -268 0
-149 -269 0
-150 -270 0
-151 -271 0
-152 -272 0
-261 -117 0
-155 -331 0
-263 -119 0
-158 -334 0
-105 -33 0
-106 -34 0
-107 -35 0
-108 -36 0
-109 -37 0
-110 -38 0
-111 -39 0
-112 -40 0
-185 -281 0
-186 -282 0
-187 -283 0
-188 -284 0
-189 -285 0
-190 -286 0
-160 -280 0
-192 -288 0
-67 -163 0
-138 -18 0
-70 -166 0
-71 -167 0
-72 -168 0
-265 -161 0
-266 -162 0
-267 -163 0
-268 -164 0
-269 -165 0
-270 -166 0
-271 -167 0
-272 -168 0
-253 -101 0
-254 -102 0
-219 -275 0
-256 -104 0
-185 -17 0
-221 -277 0
-187 -19 0
-188 -20 0
-189 -21 0
-190 -22 0
-191 -23 0
-192 -24 0
-274 -154 0
-155 -275 0
-156 -276 0
-157 -277 0
-158 -278 0
-159 -279 0
-197 -45 0
-65 -161 0
-66 -162 0
-199 -47 0
-68 -164 0
-69 -165 0
-169 -321 0
-170 -322 0
-171 -323 0
-172 -324 0
-173 -325 0
-174 -326 0
-175 -327 0
-176 -328 0
-242 -274 0
-243 -275 0
-244 -276 0
-245 -277 0
-246 -278 0
-247 -279 0
-218 -274 0
-74 -274 0
-220 -276 0
-76 -276 0
-222 -278 0
-223 -279 0
-224 -280 0
-178 -274 0
-179 -275 0
-180 -276 0
-181 -277 0
-182 -278 0
-183 -279 0
-184 -280 0
-193 -41 0
-194 -42 0
-195 -43 0
-196 -44 0
-275 -19 0
-198 -46 0
-277 -21 0
-200 -48 0
-279 -23 0
-280 -24 0
-281 -25 0
-282 -26 0
-283 -27 0
-284 -28 0
-285 -29 0
-286 -30 0
-287 -31 0
-288 -32 0
-274 -322 0
-275 -323 0
-276 -324 0
-277 -325 0
9 10 0
-278 -326 0
-201 -65 0
-279 -327 0
-202 -66 0
-67 -203 0
-68 -204 0
-69 -205 0
-70 -206 0
-71 -207 0
-72 -208 0
-193 -153 0
-194 -154 0
-195 -155 0
-196 -156 0
-197 -157 0
-198 -158 0
-199 -159 0
-200 -160 0
-274 -18 0
-276 -20 0
-278 -22 0
-236 -100 0
-237 -101 0
-238 -102 0
-239 -103 0
-240 -104 0
-234 -138 0
-235 -139 0
-236 -140 0
-237 -141 0
-238 -142 0
-239 -143 0
-240 -144 0
-249 -97 0
-250 -98 0
-251 -99 0
-252 -100 0
-255 -103 0
-186 -18 0
-280 -328 0
-274 -266 0
-275 -267 0
-268 -276 0
-269 -277 0
-270 -278 0
-271 -279 0
-272 -280 0
-321 -257 0
-322 -258 0
-323 -259 0
-324 -260 0
-325 -261 0
-326 -262 0
-327 -263 0
-328 -264 0
-234 -98 0
-235 -99 0
-59 -163 0
-60 -164 0
-61 -165 0
-62 -166 0
-63 -167 0
-64 -168 0
-185 -105 0
-186 -106 0
-187 -107 0
-188 -108 0
-189 -109 0
-190 -110 0
-191 -111 0
-20 -180 0
-185 -33 0
-23 -183 0
-187 -35 0
-74 -98 0
-75 -99 0
-76 -100 0
-77 -101 0
-78 -102 0
-79 -103 0
-80 -104 0
-146 -306 0
-147 -307 0
-148 -308 0
-149 -309 0
-150 -310 0
-298 -194 0
-151 -311 0
-152 -312 0
-300 -196 0
-57 -161 0
-58 -162 0
-302 -198 0
-303 -199 0
-304 -200 0
-306 -210 0
-307 -211 0
-308 -212 0
-309 -213 0
-310 -214 0
-311 -215 0
-312 -216 0
-121 -65 0
-122 -66 0
-123 -67 0
-124 -68 0
-192 -112 0
-127 -71 0
-186 -34 0
-202 -290 0
-188 -36 0
-189 -37 0
-190 -38 0
-191 -39 0
-192 -40 0
-249 -153 0
-250 -154 0
-251 -155 0
-252 -156 0
-253 -157 0
-254 -158 0
-255 -159 0
-256 -160 0
-297 -193 0
-91 -267 0
-299 -195 0
-94 -270 0
-301 -197 0
-242 -218 0
-243 -219 0
-244 -220 0
-245 -221 0
-246 -222 0
-247 -223 0
-248 -224 0
-321 -289 0
-322 -290 0
-323 -291 0
-324 -292 0
-325 -293 0
-248 -280 0
-326 -294 0
-327 -295 0
-75 -275 0
-296 -328 0
-274 -138 0
-77 -277 0
-78 -278 0
-79 -279 0
-80 -280 0
-49 -321 0
-50 -322 0
-51 -323 0
-52 -324 0
-53 -325 0
-54 -326 0
-55 -327 0
-328 -56 0
-89 -265 0
-90 -266 0
-92 -268 0
-93 -269 0
-95 -271 0
-96 -272 0
-269 -117 0
-270 -118 0
-271 -119 0
-272 -120 0
-274 -98 0
-275 -99 0
-276 -100 0
-277 -101 0
-278 -102 0
-279 -103 0
-280 -104 0
-17 -177 0
-18 -178 0
-19 -179 0
-21 -181 0
-22 -182 0
-24 -184 0
-73 -97 0
-275 -139 0
-276 -140 0
-277 -141 0
-278 -142 0
-279 -143 0
-280 -144 0
-81 -329 0
-82 -330 0
-83 -331 0
-332 -84 0
-333 -85 0
-334 -86 0
-335 -87 0
-336 -88 0
-265 -113 0
-266 -114 0
-115 -267 0
-268 -116 0
-146 -298 0
-147 -299 0
-148 -300 0
-149 -301 0
-150 -302 0
-151 -303 0
-152 -304 0
-193 -289 0
-194 -290 0
-195 -291 0
-196 -292 0
-197 -293 0
-198 -294 0
-199 -295 0
-200 -296 0
-269 -101 0
-271 -103 0
-306 -298 0
-307 -299 0
-308 -300 0
-309 -301 0
-310 -302 0
-311 -303 0
-312 -304 0
-169 -17 0
-170 -18 0
-171 -19 0
-172 -20 0
-173 -21 0
-174 -22 0
-175 -23 0
-147 -211 0
-176 -24 0
-148 -212 0
-145 -297 0
-149 -213 0
-150 -214 0
-151 -215 0
-152 -216 0
-201 -265 0
-202 -266 0
-203 -267 0
-204 -268 0
-269 -205 0
-206 -270 0
-271 -207 0
-208 -272 0
-41 -153 0
-42 -154 0
-43 -155 0
-44 -156 0
-297 -329 0
-298 -330 0
-299 -331 0
-332 -300 0
-333 -301 0
-334 -302 0
-335 -303 0
-336 -304 0
-257 -153 0
-258 -154 0
-259 -155 0
-260 -156 0
-261 -157 0
-262 -158 0
-263 -159 0
-264 -160 0
-145 -209 0
-146 -210 0
-302 -262 0
-264 -304 0
-122 -202 0
-123 -203 0
-124 -204 0
-125 -205 0
-126 -206 0
-127 -207 0
-128 -208 0
-274 -306 0
-307 -275 0
-308 -276 0
-309 -277 0
-310 -278 0
-311 -279 0
-312 -280 0
-332 -60 0
-265 -289 0
-333 -61 0
-266 -290 0
-334 -62 0
-335 -63 0
-336 -64 0
-81 -201 0
-82 -202 0
-83 -203 0
-84 -204 0
-85 -205 0
-86 -206 0
-87 -207 0
-88 -208 0
-297 -257 0
-298 -258 0
-299 -259 0
-300 -260 0
-301 -261 0
-303 -263 0
-121 -201 0
-69 -101 0
-70 -102 0
-71 -103 0
-72 -104 0
-185 -313 0
-186 -314 0
-187 -315 0
-188 -316 0
-189 -317 0
-190 -318 0
-191 -319 0
-192 -320 0
-265 -97 0
-266 -98 0
-267 -99 0
-268 -100 0
-270 -102 0
-272 -104 0
-267 -291 0
-268 -292 0
-269 -293 0
-270 -294 0
-271 -295 0
-272 -296 0
-105 -313 0
-106 -314 0
-107 -315 0
-108 -316 0
-109 -317 0
-110 -318 0
-111 -319 0
-112 -320 0
-65 -97 0
-66 -98 0
-67 -99 0
-68 -100 0
-116 -20 0
-21 -117 0
-118 -22 0
-23 -119 0
-120 -24 0
-226 -10 0
-11 -227 0
-228 -12 0
-13 -229 0
-230 -14 0
-15 -231 0
-232 -16 0
-73 -289 0
-74 -290 0
-75 -291 0
-303 -71 0
-49 -265 0
-51 -267 0
-52 -268 0
-53 -269 0
-54 -270 0
-55 -271 0
-272 -56 0
-306 -122 0
-307 -123 0
-308 -124 0
-309 -125 0
-310 -126 0
-311 -127 0
-312 -128 0
-113 -17 0
-183 -247 0
-114 -18 0
-184 -248 0
-19 -115 0
-306 -82 0
-83 -307 0
-84 -308 0
-85 -309 0
-86 -310 0
-87 -311 0
-88 -312 0
-218 -226 0
-219 -227 0
-220 -228 0
-221 -229 0
-222 -230 0
-223 -231 0
-224 -232 0
-249 -113 0
-250 -114 0
-76 -292 0
-77 -293 0
-78 -294 0
-79 -295 0
-80 -296 0
-265 -297 0
-266 -298 0
-299 -267 0
-268 -300 0
-269 -301 0
-270 -302 0
-271 -303 0
-272 -304 0
-178 -242 0
-179 -243 0
-180 -244 0
-181 -245 0
-182 -246 0
-287 -175 0
-81 -153 0
-155 -83 0
-156 -84 0
-157 -85 0
-158 -86 0
-159 -87 0
-160 -88 0
-73 -153 0
-74 -154 0
-75 -155 0
-76 -156 0
-77 -157 0
-78 -158 0
-79 -159 0
-80 -160 0
-45 -157 0
-306 -58 0
-46 -158 0
-307 -59 0
-47 -159 0
-48 -160 0
-33 -153 0
-34 -154 0
-35 -155 0
-36 -156 0
-37 -157 0
-38 -158 0
-39 -159 0
-40 -160 0
-281 -169 0
-282 -170 0
-283 -171 0
-284 -172 0
-285 -173 0
-286 -174 0
-288 -176 0
-82 -154 0
-38 -262 0
-39 -263 0
-40 -264 0
-2 -234 0
-3 -235 0
-4 -236 0
-5 -237 0
-6 -238 0
-7 -239 0
-8 -240 0
-65 -297 0
-298 -66 0
-299 -67 0
-300 -68 0
-301 -69 0
-302 -70 0
-304 -72 0
-50 -266 0
-308 -60 0
-309 -61 0
-310 -62 0
-311 -63 0
-312 -64 0
-281 -249 0
-282 -250 0
-283 -251 0
-284 -252 0
-285 -253 0
-286 -254 0
-287 -255 0
-288 -256 0
-33 -257 0
-34 -258 0
-35 -259 0
-36 -260 0
-37 -261 0
-304 -56 0
-329 -265 0
-330 -266 0
-331 -267 0
-332 -268 0
-333 -269 0
-334 -270 0
-335 -271 0
-336 -272 0
-129 -265 0
-130 -266 0
-131 -267 0
-132 -268 0
-133 -269 0
-134 -270 0
-203 -99 0
-205 -101 0
-207 -103 0
-208 -104 0
-82 -274 0
-83 -275 0
-84 -276 0
-85 -277 0
-86 -278 0
-87 -279 0
-88 -280 0
-297 -49 0
-298 -50 0
-299 -51 0
-300 -52 0
-301 -53 0
-321 -97 0
-302 -54 0
-322 -98 0
-303 -55 0
-323 -99 0
-324 -100 0
-325 -101 0
-326 -102 0
-327 -103 0
-328 -104 0
-129 -17 0
-130 -18 0
-131 -19 0
-132 -20 0
-133 -21 0
-134 -22 0
-135 -23 0
-136 -24 0
-113 -201 0
-114 -202 0
-135 -271 0
-136 -272 0
-217 -17 0
-218 -18 0
-219 -19 0
-220 -20 0
-221 -21 0
-222 -22 0
-223 -23 0
-224 -24 0
-281 -113 0
-282 -114 0
-283 -115 0
-284 -116 0
-285 -117 0
-286 -118 0
-287 -119 0
-288 -120 0
-83 -123 0
-85 -125 0
-87 -127 0
-88 -128 0
-274 -58 0
-275 -59 0
-60 -276 0
-61 -277 0
-62 -278 0
-63 -279 0
-64 -280 0
-161 -49 0
-162 -50 0
-51 -163 0
-52 -164 0
-53 -165 0
-313 -33 0
-54 -166 0
-314 -34 0
-55 -167 0
-315 -35 0
-316 -36 0
-317 -37 0
-318 -38 0
-319 -39 0
-320 -40 0
-25 -249 0
-26 -250 0
-27 -251 0
-28 -252 0
-29 -253 0
-30 -254 0
-31 -255 0
-32 -256 0
-121 -81 0
-82 -122 0
-84 -124 0
-86 -126 0
-123 -275 0
-124 -276 0
-125 -277 0
-126 -278 0
-127 -279 0
-128 -280 0
-169 -201 0
-170 -202 0
-171 -203 0
-172 -204 0
-173 -205 0
-174 -206 0
-175 -207 0
-176 -208 0
-201 -97 0
-202 -98 0
-204 -100 0
-206 -102 0
-56 -168 0
-33 -289 0
-34 -290 0
-35 -291 0
-36 -292 0
-37 -293 0
-38 -294 0
-39 -295 0
-40 -296 0
-65 -265 0
-66 -266 0
-67 -267 0
-68 -268 0
-69 -269 0
-70 -270 0
-71 -271 0
-72 -272 0
-122 -274 0
-209 -17 0
-210 -18 0
-19 -211 0
-212 -20 0
-21 -213 0
-214 -22 0
-23 -215 0
-216 -24 0
-297 -321 0
-298 -322 0
-299 -323 0
-300 -324 0
-301 -325 0
-302 -326 0
-303 -327 0
-228 -100 0
-230 -102 0
-232 -104 0
-138 -242 0
-139 -243 0
-140 -244 0
-141 -245 0
-142 -246 0
-143 -247 0
-144 -248 0
-89 -321 0
-90 -322 0
-91 -323 0
-92 -324 0
-93 -325 0
-94 -326 0
-258 -162 0
-95 -327 0
-259 -163 0
-96 -328 0
-260 -164 0
-261 -165 0
-262 -166 0
-263 -167 0
-264 -168 0
-257 -17 0
-258 -18 0
-259 -19 0
-260 -20 0
-261 -21 0
-262 -22 0
-263 -23 0
-264 -24 0
-57 -329 0
-58 -330 0
-59 -331 0
-304 -328 0
-65 -153 0
-66 -154 0
-67 -155 0
-68 -156 0
-69 -157 0
-70 -158 0
-71 -159 0
-72 -160 0
-193 -113 0
-194 -114 0
-195 -115 0
-196 -116 0
-197 -117 0
-198 -118 0
-199 -119 0
-200 -120 0
-257 -161 0
-21 -269 0
-23 -271 0
-113 -49 0
-114 -50 0
-51 -115 0
-52 -116 0
-53 -117 0
-54 -118 0
-55 -119 0
-120 -56 0
-209 -161 0
-210 -162 0
-211 -163 0
-212 -164 0
-213 -165 0
-214 -166 0
-115 -203 0
-215 -167 0
-116 -204 0
-216 -168 0
-117 -205 0
-118 -206 0
-119 -207 0
-120 -208 0
-201 -153 0
-202 -154 0
-203 -155 0
-204 -156 0
-205 -157 0
-206 -158 0
-207 -159 0
-208 -160 0
-17 -265 0
-18 -266 0
-267 -19 0
-20 -268 0
-22 -270 0
-24 -272 0
-11 -179 0
-12 -180 0
-13 -181 0
-14 -182 0
-15 -183 0
-16 -184 0
-289 -49 0
-290 -50 0
-291 -51 0
-292 -52 0
-293 -53 0
-294 -54 0
-295 -55 0
-56 -296 0
-226 -98 0
-227 -99 0
-229 -101 0
-231 -103 0
-97 -89 0
-98 -90 0
-99 -91 0
-100 -92 0
-101 -93 0
-102 -94 0
-103 -95 0
-104 -96 0
-153 -161 0
-154 -162 0
-163 -155 0
-164 -156 0
-165 -157 0
-166 -158 0
-167 -159 0
-168 -160 0
-177 -9 0
-10 -178 0
